c instance by G2
c solution = 0110100101100000101
c Known solution cost is 876 
p cnf 19 30
w 88 46 50 3 91 14 54 85 2 62 30 20 69 92 28 32 2 37 71
-18 17 12 0
2 1 -7 0
12 -14 19 0
13 -12 -5 0
18 2 19 0
4 3 15 0
6 -7 1 0
-14 11 -7 0
-3 -1 15 0
17 -3 -5 0
-15 -13 -12 0
-13 -5 -8 0
-18 7 4 0
-15 -18 6 0
-16 -5 -10 0
-17 -14 -19 0
15 19 1 0
-17 4 2 0
18 -4 14 0
9 -15 12 0
-17 14 -18 0
-3 -12 -15 0
-6 -5 7 0
-3 9 10 0
6 15 8 0
5 16 -19 0
-9 -5 15 0
11 12 -2 0
-1 7 -10 0
7 -14 -17 0
